5

    71    94    67    39    92
    49    80    72    62    99
    9    71    56    4    87
    68    3    2    64    32
    95    65    50    73    24

    0    6    37    91    42
    6    0    96    95    59
    37    96    0    7    72
    91    95    7    0    11
    42    59    72    11    0

    34    95    94    69    23
    38    29    47    97    5
    74    70    92    53    77
    58    63    24    77    45
    4    15    68    2    54
